10881.19,55.9,69.34
9371.52,64.9,80.51
8928.04,68.12,84.51
10513.19,57.85,71.77
10860.7,56.0,69.47
10962.76,55.48,68.82
9437.19,64.45,79.95
9721.44,62.56,77.61
9584.06,63.46,78.72
10432.75,58.3,72.32
8281.53,73.44,91.1
9315.74,65.29,80.99
9704.5,62.67,77.75
9815.23,61.97,76.87
10906.16,55.77,69.18
10659.63,57.06,70.78
9634.68,63.13,78.31
9693.31,62.75,77.84
10308.59,59.0,73.19
10076.85,60.36,74.87
